(set-info :smt-lib-version 2.6)
(set-logic QF_SLIA)
(set-info :source |
Generated by: Dmitry Blotsky1, Federico Mora, Murphy Berzish, Yunhui Zheng, Ifaz Kabir, Vijay Ganesh, Zhengyang Lu
Generated on: 2018-01-24
Generator: StringFuzz
Application: Evaluate string solvers
Target solver: Z3str3, CVC4, Z3str2, Norn
Publications: Blotsky, D., Mora, F., Berzish, M., Zheng, Y., Kabir, I., & Ganesh, V. (2018). Stringfuzz: A fuzzer for string solvers. In CAV 2018.
Description: transformed by StringFuzz, a modular string and regex fuzzer, from an industrial benchmark
|)
(set-info :license "https://creativecommons.org/licenses/by/4.0/")
(set-info :category "random")
(set-info :status unknown)

(declare-const x String)
(assert (= x "y7ddc[NN;4U*q'\n'+6/S'\r'!*z4`'\r'i{Weeee:@KUP5v1G{TB8F/:WDg=WGQ~(]OWnam6Sc56@hH2#jU#XCs""bD|8mEwEY[-nbbbccwj;>/j,F?bAd}t'\x0b'M76a4E(Z[0PR:wzY%'\x0c':'vor46x&-XgC/C/)g2rcwJM'\x0c'hZQ>5a1-)WiV""'\t'rg|ZB4ktB9>$/76K5qVSjK|B'\r'?5\\b'\x0b'h0zr3E0)rt~T3)-;^]Q9p'\n''\x0b'>8:o*%""ccfKvV4uN9g1f,6MHP(4WD[aDO)hQ*`9>~2+#EEv;H3t3\\t' '?\\.'\t'9<LHOI~FZP""el71o;suMLTu>E+igJ:'\x0c'4ailJ'\x0c'P#<ZlzPBM:ne%~U~RBXt}'\t'[x;weM^x*V<6-e{\\o4G&R^-7^bn7<,1;Ly[^;{Ie"))
(assert (str.in_re x (re.* (re.++ (str.to_re "a:8=Y(abb|%CL=p5~}@'\r'mwKD_8'\r'9t>N'\t'3wt)' 'FO9CG#>UD({1cV_~KX*MoDp{Dduou<9d\\'\x0c'") (str.to_re "cc?\\'\x0c'`2.""7mRc31_#' 'P+jx_' ')*!+d_<s.ee")))))
(check-sat)

(exit)
